18 45
1 2 85
1 4 20
1 5 42
1 12 13
1 16 32
2 4 46
2 5 40
2 12 64
2 16 86
3 10 79
3 11 11
3 13 80
3 14 75
3 17 81
4 5 69
4 12 33
4 16 82
5 12 46
5 16 78
6 7 50
6 8 51
6 9 74
6 15 96
6 18 35
7 8 1
7 9 70
7 15 5
7 18 98
8 9 84
8 15 84
8 18 19
9 15 65
9 18 70
10 11 85
10 13 69
10 14 49
10 17 75
11 13 3
11 14 19
11 17 2
12 16 97
13 14 54
13 17 82
14 17 32
15 18 98
